0 265.00 165.00
1 255.00 165.00
2 255.00 165.00
3 245.00 165.00
4 235.00 165.00
5 235.00 155.00
6 235.00 155.00
7 235.00 145.00
8 235.00 135.00
9 235.00 125.00
10 235.00 125.00
11 235.00 115.00
12 235.00 105.00
13 235.00 95.00
14 235.00 85.00
15 235.00 75.00
16 235.00 75.00
17 235.00 65.00
18 235.00 55.00
19 235.00 45.00
20 235.00 35.00
21 235.00 35.00
22 235.00 25.00
23 235.00 15.00
24 235.00 15.00
25 235.00 15.00
26 225.00 15.00
27 215.00 15.00
28 215.00 15.00
29 215.00 15.00
30 215.00 25.00
31 215.00 35.00
32 215.00 35.00
33 215.00 45.00
34 215.00 55.00
35 215.00 65.00
36 215.00 75.00
37 215.00 75.00
38 215.00 85.00
39 215.00 95.00
40 215.00 105.00
41 215.00 115.00
42 215.00 125.00
43 215.00 125.00
44 215.00 135.00
45 215.00 145.00
46 215.00 155.00
47 215.00 155.00
48 215.00 165.00
49 205.00 165.00
50 205.00 165.00
51 195.00 165.00
52 185.00 165.00
53 185.00 155.00
54 185.00 155.00
55 185.00 145.00
56 185.00 135.00
57 185.00 135.00
58 185.00 125.00
59 185.00 115.00
60 185.00 115.00
61 185.00 115.00
62 175.00 115.00
63 165.00 115.00
64 165.00 115.00
65 165.00 115.00
66 165.00 125.00
67 165.00 135.00
68 165.00 135.00
69 165.00 145.00
70 165.00 155.00
71 165.00 165.00
72 165.00 165.00
73 165.00 175.00
74 165.00 185.00
75 165.00 185.00
76 165.00 185.00
77 175.00 185.00
78 185.00 185.00
79 185.00 185.00
80 195.00 185.00
81 205.00 185.00
82 215.00 185.00
83 225.00 185.00
84 225.00 185.00
85 235.00 185.00
86 245.00 185.00
87 255.00 185.00
88 265.00 185.00
89 275.00 185.00
90 275.00 185.00
91 285.00 185.00
92 295.00 185.00
93 305.00 185.00
94 315.00 185.00
95 315.00 185.00
96 325.00 185.00
97 335.00 185.00
98 335.00 185.00
99 335.00 185.00
100 335.00 175.00
101 335.00 165.00
102 335.00 165.00
103 335.00 155.00
104 335.00 145.00
105 335.00 135.00
106 335.00 135.00
107 335.00 125.00
108 335.00 115.00
109 335.00 115.00
110 335.00 115.00
111 325.00 115.00
112 315.00 115.00
113 315.00 115.00
114 315.00 115.00
115 315.00 125.00
116 315.00 135.00
117 315.00 135.00
118 315.00 145.00
119 315.00 155.00
120 315.00 155.00
121 315.00 165.00
122 305.00 165.00
123 305.00 165.00
124 295.00 165.00
125 285.00 165.00
126 285.00 155.00
127 285.00 155.00
128 285.00 145.00
129 285.00 135.00
130 285.00 125.00
131 285.00 125.00
132 285.00 115.00
133 285.00 105.00
134 285.00 95.00
135 285.00 85.00
136 285.00 75.00
137 285.00 75.00
138 285.00 65.00
139 285.00 55.00
140 285.00 45.00
141 285.00 35.00
142 285.00 35.00
143 285.00 25.00
144 285.00 15.00
145 285.00 15.00
146 285.00 15.00
147 275.00 15.00
148 265.00 15.00
149 265.00 15.00
150 265.00 15.00
151 265.00 25.00
152 265.00 35.00
153 265.00 35.00
154 265.00 45.00
155 265.00 55.00
156 265.00 65.00
157 265.00 75.00
158 265.00 75.00
159 265.00 85.00
160 265.00 95.00
161 265.00 105.00
162 265.00 115.00
163 265.00 125.00
164 265.00 125.00
165 265.00 135.00
